problems/csplib-prob015/SchursLemma-models/noch/O2/lingeling/model_1_3-5-10-solution000001.eprime-solution
language ESSENCE' 1.0

letting boxes_PartitionAsSet_ExplicitR5_ExplicitVarSizeWithMarker_Marker be [1, 2, 2, 2, 3; int(1..5)]
letting boxes_PartitionAsSet_ExplicitR5_ExplicitVarSizeWithMarker_Values be
        [[8, 1, 1, 1, 1, 1, 1, 1, 1, 1; int(1..10)], [3, 7, 1, 1, 1, 1, 1, 1, 1, 1; int(1..10)],
         [4, 5, 1, 1, 1, 1, 1, 1, 1, 1; int(1..10)], [6, 9, 1, 1, 1, 1, 1, 1, 1, 1; int(1..10)],
         [1, 2, 10, 1, 1, 1, 1, 1, 1, 1; int(1..10)]; int(1..5)]
